c 
c 
c Ce fichier a ete genere automatiquement par le programme les_axiomes_universels.py
c Il contient les axiomes universels pour le jeu Hitman
c Il contient egalement les deductions ajoutees a chaque tour
c Il correspond a un plateau de taille 3x3
c 
c 
p cnf 9 132
-2 -1 0
-4 -1 0
-5 -1 0
-4 -2 0
-5 -2 0
-5 -4 0
1 2 4 5 0
-2 -1 0
-4 -1 0
-5 -1 0
-7 -1 0
-8 -1 0
-4 -2 0
-5 -2 0
-7 -2 0
-8 -2 0
-5 -4 0
-7 -4 0
-8 -4 0
-7 -5 0
-8 -5 0
-8 -7 0
1 2 4 5 7 8 0
-3 -2 -1 0
-4 -2 -1 0
-5 -2 -1 0
-6 -2 -1 0
-7 -2 -1 0
-8 -2 -1 0
-9 -2 -1 0
-4 -3 -1 0
-5 -3 -1 0
-6 -3 -1 0
-7 -3 -1 0
-8 -3 -1 0
-9 -3 -1 0
-5 -4 -1 0
-6 -4 -1 0
-7 -4 -1 0
-8 -4 -1 0
-9 -4 -1 0
-6 -5 -1 0
-7 -5 -1 0
-8 -5 -1 0
-9 -5 -1 0
-7 -6 -1 0
-8 -6 -1 0
-9 -6 -1 0
-8 -7 -1 0
-9 -7 -1 0
-9 -8 -1 0
-4 -3 -2 0
-5 -3 -2 0
-6 -3 -2 0
-7 -3 -2 0
-8 -3 -2 0
-9 -3 -2 0
-5 -4 -2 0
-6 -4 -2 0
-7 -4 -2 0
-8 -4 -2 0
-9 -4 -2 0
-6 -5 -2 0
-7 -5 -2 0
-8 -5 -2 0
-9 -5 -2 0
-7 -6 -2 0
-8 -6 -2 0
-9 -6 -2 0
-8 -7 -2 0
-9 -7 -2 0
-9 -8 -2 0
-5 -4 -3 0
-6 -4 -3 0
-7 -4 -3 0
-8 -4 -3 0
-9 -4 -3 0
-6 -5 -3 0
-7 -5 -3 0
-8 -5 -3 0
-9 -5 -3 0
-7 -6 -3 0
-8 -6 -3 0
-9 -6 -3 0
-8 -7 -3 0
-9 -7 -3 0
-9 -8 -3 0
-6 -5 -4 0
-7 -5 -4 0
-8 -5 -4 0
-9 -5 -4 0
-7 -6 -4 0
-8 -6 -4 0
-9 -6 -4 0
-8 -7 -4 0
-9 -7 -4 0
-9 -8 -4 0
-7 -6 -5 0
-8 -6 -5 0
-9 -6 -5 0
-8 -7 -5 0
-9 -7 -5 0
-9 -8 -5 0
-8 -7 -6 0
-9 -7 -6 0
-9 -8 -6 0
-9 -8 -7 0
1 3 4 5 6 7 8 9 0
2 3 4 5 6 7 8 9 0
1 2 4 5 6 7 8 9 0
1 2 3 5 6 7 8 9 0
1 2 3 4 6 7 8 9 0
1 2 3 4 5 7 8 9 0
1 2 3 4 5 6 8 9 0
1 2 3 4 5 6 7 9 0
1 2 3 4 5 6 7 8 0
-5 -4 0
-6 -4 0
-7 -4 0
-8 -4 0
-9 -4 0
-6 -5 0
-7 -5 0
-8 -5 0
-9 -5 0
-7 -6 0
-8 -6 0
-9 -6 0
-8 -7 0
-9 -7 0
-9 -8 0
4 5 6 7 8 9 0
-1 0
-4 0
-7 0
-5 0
-6 0
-8 0